Instance name: /mnt/c/Users/ORG/CLionProjects/uMV-FSTSP/Murray_Chu_2015_test_data/FSTSP/FSTSP_10_customer_problems/20140810T123440v1

drone speed: 0.2 miles/minute
uav non-eligible customer: 4 5 
Printing number of nodes: 11

Gurobi Optimizer version 11.0.0 build v11.0.0rc2 (linux64 - "Ubuntu 22.04.3 LTS")

CPU model: 13th Gen Intel(R) Core(TM) i5-13500, instruction set [SSE2|AVX|AVX2]
Thread count: 10 physical cores, 20 logical processors, using up to 20 threads

Optimize a model with 44651 rows, 1957 columns and 1837624 nonzeros
Model fingerprint: 0x1c848a0d
Variable types: 11 continuous, 1946 integer (1814 binary)
Coefficient statistics:
  Matrix range     [1e+00, 2e+01]
  Objective range  [1e+00, 2e+01]
  Bounds range     [1e+00, 1e+00]
  RHS range        [1e+00, 9e+00]
Found heuristic solution: objective 159.2244739
Presolve removed 29601 rows and 1051 columns
Presolve time: 2.45s
Presolved: 15050 rows, 906 columns, 445724 nonzeros
Variable types: 8 continuous, 898 integer (898 binary)
Found heuristic solution: objective 122.1772671
Root relaxation presolved: 15047 rows, 906 columns, 445702 nonzeros


Root relaxation: objective 4.309173e+01, 2752 iterations, 1.44 seconds (3.66 work units)

    Nodes    |    Current Node    |     Objective Bounds      |     Work
 Expl Unexpl |  Obj  Depth IntInf | Incumbent    BestBd   Gap | It/Node Time

     0     0   43.09173    0   72  122.17727   43.09173  64.7%     -    4s
H    0     0                      96.2428110   43.09173  55.2%     -    4s
H    0     0                      91.4147404   43.09173  52.9%     -    4s
H    0     0                      61.0845458   43.09173  29.5%     -    4s
     0     0   43.26762    0  116   61.08455   43.26762  29.2%     -    4s
H    0     0                      60.4308982   43.35534  28.3%     -    4s
     0     0   44.02519    0   96   60.43090   44.02519  27.1%     -    5s
     0     0   44.25263    0  127   60.43090   44.25263  26.8%     -    5s
     0     0   44.25263    0  120   60.43090   44.25263  26.8%     -    5s
H    0     0                      53.2082026   44.35425  16.6%     -    6s
     0     0   44.35425    0  106   53.20820   44.35425  16.6%     -    6s
H    0     0                      52.3380873   44.35425  15.3%     -    6s
     0     0   44.35425    0  113   52.33809   44.35425  15.3%     -    6s
     0     0   44.35425    0  130   52.33809   44.35425  15.3%     -    6s
     0     0   44.35425    0  128   52.33809   44.35425  15.3%     -    6s
     0     0   44.35425    0  130   52.33809   44.35425  15.3%     -    6s
     0     0   44.35425    0  120   52.33809   44.35425  15.3%     -    6s
     0     0   44.35425    0  122   52.33809   44.35425  15.3%     -    6s
     0     0   44.35425    0  119   52.33809   44.35425  15.3%     -    7s
     0     0   44.35425    0  123   52.33809   44.35425  15.3%     -    7s
     0     0   44.35425    0  125   52.33809   44.35425  15.3%     -    7s
     0     0   44.35425    0  126   52.33809   44.35425  15.3%     -    7s
     0     0   44.37178    0  103   52.33809   44.37178  15.2%     -    7s
     0     0   44.40859    0  113   52.33809   44.40859  15.2%     -    7s
     0     0   44.40859    0  118   52.33809   44.40859  15.2%     -    7s
     0     0   44.40859    0  120   52.33809   44.40859  15.2%     -    7s
     0     0   44.40859    0  111   52.33809   44.40859  15.2%     -    8s
     0     0   44.56485    0  116   52.33809   44.56485  14.9%     -    8s
     0     0   44.56485    0  116   52.33809   44.56485  14.9%     -    8s
     0     0   44.56485    0  118   52.33809   44.56485  14.9%     -    8s
     0     0   44.56485    0  110   52.33809   44.56485  14.9%     -    8s
     0     0   44.56858    0  114   52.33809   44.56858  14.8%     -    8s
     0     0   44.64612    0  111   52.33809   44.64612  14.7%     -    9s
     0     0   44.64612    0  108   52.33809   44.64612  14.7%     -    9s
     0     0   44.65557    0  113   52.33809   44.65557  14.7%     -    9s
     0     0   44.71349    0  112   52.33809   44.71349  14.6%     -    9s
     0     0   44.73738    0  112   52.33809   44.73738  14.5%     -    9s
     0     0   44.75825    0  115   52.33809   44.75825  14.5%     -    9s
     0     0   44.76539    0  113   52.33809   44.76539  14.5%     -    9s
     0     2   44.76539    0  113   52.33809   44.76539  14.5%     -   10s
    33    35   46.18813    5   96   52.33809   44.96664  14.1%   153   16s
H   34    35                      48.3364285   44.96664  6.97%   148   16s
    70    17   48.02277    7  109   48.33643   44.98596  6.93%   107   20s
   163     5   47.20803   11   92   48.33643   47.01600  2.73%  96.2   25s

Cutting planes:
  Gomory: 1
  Cover: 2
  MIR: 11
  Zero half: 9
  Mod-K: 2
  RLT: 40

Explored 194 nodes (21135 simplex iterations) in 25.80 seconds (42.39 work units)
Thread count was 20 (of 20 available processors)

Solution count 9: 48.3364 52.3381 53.2082 ... 159.224

Optimal solution found (tolerance 1.00e-04)
Best objective 4.833642845313e+01, best bound 4.833642845313e+01, gap 0.0000%
Truck arcs: 
0 2 6.19937
1 8 2.95098
2 6 3.99917
2 7 6.42059
4 10 4.31275
5 2 5.76971
6 1 3.41898
7 5 1.61466
8 4 5.54215
10 11 5.10809
Theta:
Theta_3 = 1
Theta_9 = 1
Drone arcs:
0 9
3 10
4 3
9 8
Gamma:
gamma_3_2_7= 1
gamma_3_4_10= 1
gamma_3_5_2= 1
gamma_3_7_5= 1
gamma_9_0_2= 1
gamma_9_1_8= 1
gamma_9_2_6= 1
gamma_9_6_1= 1
Sigma:
Sigma_1 = 0
Sigma_2 = 0
Sigma_3 = 0
Sigma_4 = 0
Sigma_5 = 0
Sigma_6 = 0
Sigma_7 = 0
Sigma_8 = 0
Sigma_9 = 0
Sigma_10 = 0
Sigma_11 = 0
middle of 3 sortie are: 2 5 7 
middle of 9 sortie are: 1 2 6 
Objective: 48.3364
Number of sorties: 2
